benchmarks_CP/INST_36x36/55/inst36x36_55_3.dzn
S=6;
start=[|
3,	-1,	-1,	9,	32,	-1,	-1,	23,	-1,	13,	30,	1,	14,	33,	15,	24,	-1,	25,	-1,	-1,	4,	16,	-1,	21,	7,	-1,	31,	-1,	6,	20,	-1,	22,	29,	27,	36,	-1|
18,	2,	1,	5,	4,	-1,	26,	-1,	-1,	10,	35,	16,	-1,	8,	3,	29,	-1,	30,	-1,	23,	-1,	-1,	9,	33,	-1,	-1,	-1,	-1,	12,	-1,	15,	21,	-1,	-1,	19,	7|
-1,	33,	-1,	-1,	35,	34,	-1,	-1,	5,	27,	9,	-1,	-1,	-1,	32,	-1,	4,	2,	-1,	24,	-1,	14,	12,	-1,	13,	-1,	21,	16,	15,	25,	3,	-1,	17,	-1,	28,	-1|
22,	-1,	16,	-1,	-1,	-1,	14,	-1,	-1,	-1,	6,	34,	12,	36,	26,	23,	-1,	-1,	18,	-1,	11,	31,	-1,	-1,	8,	-1,	-1,	-1,	-1,	2,	35,	-1,	-1,	32,	10,	-1|
14,	-1,	12,	20,	26,	13,	-1,	-1,	-1,	-1,	-1,	-1,	-1,	1,	6,	21,	-1,	16,	17,	3,	-1,	-1,	-1,	34,	-1,	-1,	-1,	29,	22,	-1,	30,	-1,	-1,	31,	-1,	24|
-1,	7,	36,	-1,	31,	-1,	20,	32,	18,	3,	-1,	-1,	-1,	-1,	5,	28,	22,	-1,	-1,	29,	10,	15,	6,	-1,	4,	35,	23,	30,	-1,	34,	2,	-1,	-1,	-1,	-1,	-1|
-1,	-1,	34,	8,	6,	35,	-1,	25,	4,	-1,	31,	-1,	15,	-1,	7,	2,	1,	14,	-1,	9,	24,	26,	-1,	-1,	3,	-1,	18,	17,	-1,	33,	28,	-1,	11,	-1,	5,	22|
12,	-1,	4,	13,	19,	15,	7,	-1,	1,	16,	24,	28,	-1,	21,	-1,	5,	-1,	-1,	-1,	-1,	34,	18,	36,	-1,	-1,	-1,	2,	14,	26,	29,	9,	3,	35,	17,	-1,	-1|
17,	-1,	-1,	33,	-1,	23,	35,	-1,	13,	2,	-1,	-1,	22,	11,	-1,	4,	-1,	-1,	8,	-1,	-1,	-1,	-1,	29,	-1,	31,	19,	-1,	1,	12,	16,	10,	-1,	26,	34,	30|
36,	22,	2,	26,	30,	14,	21,	-1,	29,	-1,	27,	33,	35,	18,	13,	17,	-1,	32,	28,	-1,	3,	19,	1,	10,	34,	16,	8,	9,	24,	5,	4,	-1,	15,	-1,	-1,	31|
-1,	5,	-1,	25,	-1,	29,	30,	-1,	34,	12,	-1,	-1,	-1,	-1,	33,	3,	-1,	9,	6,	-1,	-1,	-1,	-1,	27,	11,	-1,	32,	-1,	4,	22,	-1,	1,	-1,	-1,	-1,	13|
-1,	-1,	-1,	1,	9,	21,	-1,	-1,	8,	-1,	-1,	3,	23,	-1,	34,	26,	10,	-1,	-1,	4,	-1,	7,	22,	-1,	-1,	-1,	15,	13,	-1,	27,	-1,	-1,	-1,	12,	-1,	33|
33,	-1,	31,	-1,	-1,	-1,	6,	-1,	-1,	14,	15,	23,	9,	-1,	-1,	12,	25,	-1,	-1,	-1,	18,	-1,	11,	8,	17,	-1,	-1,	-1,	5,	16,	-1,	28,	26,	30,	1,	36|
10,	-1,	-1,	14,	-1,	20,	-1,	1,	-1,	31,	-1,	11,	-1,	-1,	27,	34,	18,	6,	7,	-1,	-1,	-1,	-1,	-1,	-1,	-1,	29,	21,	-1,	-1,	17,	-1,	-1,	23,	-1,	16|
29,	26,	-1,	-1,	25,	7,	-1,	2,	-1,	24,	-1,	8,	32,	-1,	28,	13,	17,	-1,	30,	16,	1,	20,	-1,	-1,	9,	36,	14,	-1,	-1,	-1,	10,	-1,	21,	34,	-1,	-1|
35,	19,	22,	32,	28,	-1,	13,	-1,	-1,	26,	20,	-1,	33,	-1,	-1,	16,	5,	-1,	-1,	-1,	36,	25,	-1,	-1,	-1,	4,	1,	10,	31,	8,	6,	-1,	18,	11,	27,	2|
8,	-1,	9,	-1,	-1,	2,	-1,	35,	-1,	-1,	-1,	19,	36,	15,	1,	-1,	29,	-1,	5,	-1,	-1,	-1,	27,	26,	-1,	-1,	6,	25,	-1,	28,	13,	7,	24,	14,	20,	4|
16,	-1,	6,	11,	17,	-1,	-1,	33,	-1,	-1,	21,	29,	-1,	30,	31,	-1,	8,	-1,	-1,	-1,	14,	-1,	-1,	2,	15,	-1,	-1,	-1,	-1,	35,	19,	-1,	9,	3,	25,	-1|
-1,	20,	-1,	-1,	-1,	36,	33,	31,	25,	28,	8,	-1,	-1,	17,	22,	32,	2,	13,	-1,	21,	30,	1,	-1,	11,	-1,	15,	-1,	18,	-1,	-1,	34,	-1,	-1,	29,	12,	3|
24,	-1,	-1,	3,	22,	-1,	19,	-1,	15,	7,	-1,	-1,	6,	-1,	-1,	-1,	28,	-1,	9,	26,	5,	34,	-1,	-1,	10,	-1,	-1,	32,	-1,	-1,	-1,	17,	27,	25,	-1,	-1|
-1,	-1,	-1,	6,	18,	32,	17,	20,	24,	-1,	1,	2,	-1,	14,	-1,	8,	27,	35,	25,	-1,	-1,	13,	-1,	-1,	-1,	11,	3,	-1,	34,	4,	-1,	-1,	28,	15,	-1,	10|
-1,	-1,	33,	30,	5,	-1,	27,	-1,	16,	-1,	26,	-1,	34,	-1,	9,	-1,	15,	1,	-1,	18,	35,	24,	8,	22,	19,	-1,	17,	31,	25,	21,	-1,	32,	36,	4,	-1,	-1|
1,	14,	15,	10,	-1,	16,	32,	21,	-1,	23,	-1,	-1,	18,	-1,	-1,	25,	19,	-1,	-1,	17,	28,	6,	-1,	-1,	30,	9,	-1,	-1,	-1,	-1,	-1,	13,	22,	8,	-1,	-1|
21,	34,	-1,	12,	2,	17,	-1,	-1,	-1,	29,	-1,	18,	5,	-1,	-1,	31,	24,	11,	15,	-1,	20,	-1,	7,	32,	14,	28,	35,	-1,	-1,	13,	1,	-1,	23,	-1,	6,	-1|
4,	11,	23,	34,	1,	-1,	16,	-1,	2,	-1,	7,	-1,	-1,	-1,	-1,	36,	-1,	12,	-1,	5,	-1,	3,	21,	-1,	-1,	32,	28,	-1,	-1,	9,	25,	-1,	-1,	18,	17,	-1|
-1,	-1,	21,	-1,	8,	-1,	-1,	19,	33,	-1,	11,	27,	-1,	4,	-1,	-1,	3,	-1,	22,	10,	15,	-1,	-1,	14,	-1,	12,	-1,	7,	-1,	-1,	5,	16,	32,	24,	26,	-1|
-1,	25,	14,	-1,	-1,	19,	-1,	10,	-1,	-1,	-1,	32,	17,	-1,	-1,	9,	-1,	15,	-1,	8,	-1,	12,	4,	-1,	-1,	-1,	36,	11,	27,	23,	22,	-1,	-1,	28,	-1,	1|
26,	-1,	-1,	-1,	-1,	31,	12,	-1,	9,	8,	14,	-1,	27,	-1,	11,	10,	-1,	-1,	2,	1,	-1,	-1,	-1,	-1,	25,	-1,	-1,	-1,	35,	-1,	21,	36,	-1,	20,	4,	6|
20,	-1,	17,	-1,	36,	33,	29,	-1,	-1,	-1,	28,	4,	-1,	32,	25,	-1,	-1,	-1,	34,	31,	19,	-1,	26,	9,	-1,	5,	30,	24,	8,	15,	-1,	23,	10,	-1,	-1,	12|
15,	-1,	-1,	-1,	12,	-1,	36,	-1,	35,	21,	-1,	25,	-1,	-1,	8,	-1,	26,	-1,	-1,	-1,	-1,	32,	20,	18,	-1,	10,	4,	22,	-1,	-1,	27,	-1,	30,	-1,	11,	19|
34,	1,	35,	4,	-1,	-1,	-1,	5,	11,	18,	-1,	-1,	-1,	2,	17,	-1,	-1,	-1,	-1,	-1,	13,	-1,	16,	36,	31,	-1,	-1,	-1,	28,	32,	26,	-1,	3,	22,	29,	25|
-1,	17,	13,	-1,	11,	-1,	8,	-1,	10,	20,	29,	30,	1,	-1,	-1,	19,	32,	-1,	4,	-1,	-1,	-1,	-1,	28,	2,	23,	-1,	-1,	3,	6,	36,	-1,	34,	-1,	-1,	9|
-1,	21,	20,	29,	-1,	-1,	1,	4,	23,	-1,	-1,	24,	-1,	-1,	-1,	27,	-1,	-1,	11,	35,	-1,	30,	33,	5,	-1,	14,	22,	-1,	-1,	-1,	-1,	12,	6,	10,	13,	28|
23,	6,	32,	15,	33,	18,	31,	27,	14,	-1,	-1,	-1,	3,	28,	-1,	30,	-1,	4,	24,	-1,	-1,	-1,	-1,	-1,	5,	-1,	-1,	-1,	29,	-1,	8,	2,	16,	-1,	-1,	-1|
-1,	-1,	19,	-1,	14,	25,	28,	-1,	-1,	-1,	22,	-1,	-1,	-1,	-1,	-1,	-1,	-1,	-1,	2,	-1,	9,	-1,	3,	35,	-1,	24,	1,	-1,	7,	-1,	-1,	31,	-1,	-1,	-1|
-1,	-1,	28,	16,	-1,	8,	3,	36,	-1,	-1,	-1,	6,	-1,	-1,	-1,	-1,	-1,	-1,	-1,	14,	32,	29,	31,	15,	-1,	-1,	-1,	-1,	21,	-1,	-1,	19,	-1,	35,	18,	11|];
