benchmarks/INST_36x36/55/inst36x36_55_3.txt
6
1
-1	8	10	9	32	-1	-1	23	-1	13	30	1	14	33	-1	-1	35	-1	-1	28	4	16	5	21	7	-1	31	26	6	20	12	22	29	27	-1	34
18	-1	1	5	-1	6	26	24	31	10	35	16	-1	8	3	29	34	-1	32	-1	22	27	-1	-1	36	17	11	-1	-1	14	15	21	25	13	-1	-1
-1	33	-1	19	35	34	11	-1	5	27	9	22	-1	-1	32	-1	-1	-1	36	-1	7	-1	12	-1	13	-1	-1	16	-1	-1	-1	26	-1	-1	28	23
-1	15	16	-1	21	27	-1	29	7	4	-1	-1	-1	-1	-1	-1	9	17	-1	-1	-1	31	13	25	-1	24	33	-1	-1	-1	35	20	1	32	10	5
-1	23	12	-1	-1	-1	-1	-1	-1	25	33	-1	-1	1	-1	21	-1	16	17	3	8	2	-1	34	-1	-1	-1	-1	-1	-1	-1	18	4	31	9	24
25	7	36	17	31	-1	20	32	-1	-1	-1	21	19	13	-1	-1	-1	27	26	-1	10	15	6	-1	4	-1	-1	-1	-1	34	-1	11	33	-1	-1	-1
-1	-1	-1	-1	-1	-1	-1	-1	4	19	31	20	15	-1	-1	2	1	-1	-1	-1	24	-1	30	-1	3	21	18	17	-1	-1	-1	29	-1	36	-1	-1
12	10	-1	-1	19	-1	7	22	-1	16	24	28	25	21	20	5	-1	-1	-1	11	-1	18	36	-1	-1	6	-1	14	26	29	-1	3	-1	-1	32	27
17	-1	-1	-1	-1	-1	35	-1	-1	-1	18	-1	-1	11	-1	-1	-1	28	8	-1	21	5	-1	-1	20	-1	19	-1	1	-1	16	10	14	26	34	-1
-1	-1	-1	26	-1	14	-1	-1	-1	11	-1	33	-1	-1	-1	17	12	-1	28	20	3	-1	1	10	-1	-1	8	9	24	5	-1	25	-1	7	23	-1
28	5	24	-1	20	29	30	14	34	-1	10	-1	-1	-1	-1	3	36	9	6	-1	16	-1	17	-1	-1	-1	32	35	-1	22	-1	-1	-1	-1	-1	13
-1	-1	11	1	-1	-1	-1	-1	-1	36	32	3	23	16	-1	-1	10	29	14	-1	2	-1	22	35	-1	-1	15	13	30	27	20	6	19	-1	-1	-1
-1	-1	-1	27	-1	-1	6	-1	-1	-1	-1	23	9	20	-1	12	-1	10	21	-1	-1	35	-1	8	-1	-1	34	2	-1	-1	-1	28	-1	-1	1	-1
-1	4	-1	14	-1	20	-1	1	28	31	-1	11	2	-1	27	34	18	6	-1	-1	9	-1	3	24	26	-1	-1	-1	-1	19	17	8	12	23	33	-1
-1	26	-1	23	25	7	-1	2	12	24	5	-1	32	-1	-1	13	-1	19	30	-1	1	-1	15	6	-1	36	14	-1	33	11	10	31	-1	34	22	35
35	19	22	32	-1	12	13	-1	30	-1	20	-1	33	7	-1	16	5	-1	29	34	-1	25	-1	-1	-1	-1	-1	10	31	-1	-1	-1	18	11	-1	2
8	30	9	-1	34	2	18	-1	22	17	-1	19	36	15	-1	11	-1	23	5	33	31	10	-1	26	12	-1	-1	-1	-1	28	-1	-1	24	14	20	4
16	36	6	-1	-1	1	10	-1	27	34	21	29	-1	-1	31	22	8	-1	-1	-1	-1	-1	-1	2	15	-1	-1	23	18	35	19	-1	9	-1	25	-1
-1	20	-1	-1	-1	36	-1	-1	25	-1	8	14	4	17	22	32	2	-1	10	-1	-1	1	19	11	6	15	27	18	16	26	34	24	5	-1	12	3
24	29	-1	-1	22	4	-1	11	15	-1	13	-1	6	12	30	-1	-1	36	-1	-1	-1	34	-1	16	10	-1	-1	-1	23	1	-1	-1	-1	-1	-1	18
-1	-1	-1	6	-1	-1	17	20	24	-1	1	-1	-1	14	21	8	27	35	-1	36	-1	-1	29	23	-1	11	3	-1	34	4	-1	-1	28	15	16	10
-1	-1	-1	30	5	28	27	-1	-1	-1	26	-1	34	23	-1	20	-1	1	-1	-1	35	24	8	-1	-1	-1	17	31	25	-1	-1	-1	36	-1	2	-1
1	14	-1	10	-1	16	32	-1	-1	23	-1	-1	18	26	-1	25	-1	-1	-1	-1	-1	6	-1	4	-1	-1	-1	33	7	24	11	-1	22	-1	35	-1
-1	-1	25	12	2	-1	-1	-1	-1	29	4	18	-1	10	-1	31	24	-1	15	27	20	33	-1	32	14	-1	35	-1	-1	13	1	-1	23	-1	6	-1
4	-1	-1	34	-1	-1	-1	-1	2	-1	7	31	-1	24	19	36	20	12	27	-1	29	-1	-1	13	-1	32	-1	-1	-1	9	-1	35	8	18	17	15
6	-1	-1	-1	-1	-1	-1	19	33	30	-1	27	28	4	-1	-1	3	31	22	10	15	36	-1	14	18	12	13	7	-1	17	5	16	-1	24	-1	29
13	25	14	18	16	-1	-1	-1	-1	-1	-1	32	-1	-1	-1	-1	21	15	-1	-1	33	12	4	-1	-1	-1	-1	11	27	-1	22	-1	7	28	31	1
-1	32	30	-1	-1	31	12	-1	9	8	-1	17	-1	5	11	-1	33	-1	-1	1	-1	-1	24	-1	25	-1	-1	34	-1	3	-1	-1	13	-1	4	-1
-1	27	17	7	36	33	-1	-1	6	1	-1	-1	-1	32	25	35	13	-1	-1	31	-1	11	26	-1	-1	-1	-1	24	8	-1	-1	23	10	2	3	-1
-1	-1	-1	-1	12	-1	36	-1	35	21	-1	-1	-1	34	-1	-1	26	7	-1	-1	-1	-1	-1	18	1	10	4	-1	-1	-1	-1	33	-1	9	11	19
34	-1	35	4	24	-1	-1	5	11	-1	-1	7	21	2	17	-1	14	20	-1	12	-1	-1	16	36	-1	-1	10	15	28	-1	26	-1	3	22	-1	25
5	17	-1	31	11	22	-1	-1	10	-1	29	30	-1	25	35	-1	32	-1	-1	-1	27	-1	-1	-1	-1	23	26	12	-1	6	-1	14	34	-1	15	9
-1	-1	-1	-1	3	26	-1	4	23	15	2	24	8	9	-1	-1	31	-1	11	-1	25	30	33	5	16	14	-1	-1	17	-1	32	12	6	-1	-1	-1
23	-1	32	15	33	18	-1	27	14	35	-1	12	-1	28	10	30	-1	-1	24	22	-1	17	34	19	5	13	9	20	-1	36	-1	2	-1	-1	7	21
27	12	-1	-1	-1	-1	-1	34	21	-1	-1	13	26	-1	-1	-1	16	-1	20	-1	-1	9	-1	-1	35	-1	24	-1	11	-1	-1	-1	-1	5	-1	17
-1	9	-1	-1	10	8	3	36	-1	33	17	6	-1	22	-1	-1	-1	5	1	14	-1	29	31	15	27	34	25	-1	-1	30	-1	19	-1	35	-1	-1
